(set-logic QF_BV)
(declare-fun v1 () (_ BitVec 1))
(declare-fun v2 () (_ BitVec 1))
(declare-fun v3 () (_ BitVec 1))
(declare-fun v4 () (_ BitVec 1))
(declare-fun v5 () (_ BitVec 1))
(declare-fun v6 () (_ BitVec 1))
(declare-fun v7 () (_ BitVec 1))
(declare-fun v8 () (_ BitVec 1))
(declare-fun v9 () (_ BitVec 1))
(declare-fun v10 () (_ BitVec 1))
(declare-fun v11 () (_ BitVec 1))
(declare-fun v12 () (_ BitVec 1))
(define-fun $e13 () (_ BitVec 1) (bvand v1 v8))
(define-fun $e14 () (_ BitVec 1) (bvand v2 v7))
(define-fun $e15 () (_ BitVec 1) (bvand $e13 $e14))
(define-fun $e16 () (_ BitVec 1) (bvand v1 v7))
(define-fun $e17 () (_ BitVec 1) (bvand $e15 $e16))
(define-fun $e18 () (_ BitVec 1) (bvand (bvnot $e15) (bvnot (bvand (bvnot $e13) (bvnot $e14)))))
(define-fun $e19 () (_ BitVec 1) (bvand v2 v8))
(define-fun $e20 () (_ BitVec 1) (bvand v3 v7))
(define-fun $e21 () (_ BitVec 1) (bvand v1 v9))
(define-fun $e22 () (_ BitVec 1) (bvand $e19 $e21))
(define-fun $e23 () (_ BitVec 1) (bvand (bvnot (bvand $e19 $e20)) (bvand (bvnot $e22) (bvnot (bvand $e20 $e21)))))
(define-fun $e24 () (_ BitVec 1) (bvand $e18 (bvnot $e23)))
(define-fun $e25 () (_ BitVec 1) (bvand (bvnot $e17) (bvnot (bvand (bvnot $e15) (bvnot $e16)))))
(define-fun $e26 () (_ BitVec 1) (bvand $e24 $e25))
(define-fun $e27 () (_ BitVec 1) (bvand (bvnot $e22) (bvnot (bvand (bvnot $e19) (bvnot $e21)))))
(define-fun $e28 () (_ BitVec 1) (bvand (bvnot (bvand (bvnot $e20) (bvnot $e27))) (bvnot (bvand $e20 $e27))))
(define-fun $e29 () (_ BitVec 1) (bvand v2 v9))
(define-fun $e30 () (_ BitVec 1) (bvand v3 v8))
(define-fun $e31 () (_ BitVec 1) (bvand v1 v10))
(define-fun $e32 () (_ BitVec 1) (bvand $e29 $e31))
(define-fun $e33 () (_ BitVec 1) (bvand (bvnot (bvand $e29 $e30)) (bvand (bvnot $e32) (bvnot (bvand $e30 $e31)))))
(define-fun $e34 () (_ BitVec 1) (bvand $e28 (bvnot $e33)))
(define-fun $e35 () Bool (= $e18 $e23))
(define-fun $e36 () (_ BitVec 1) (bvand $e34 (ite $e35 #b1 #b0)))
(define-fun $e37 () Bool (= $e28 $e33))
(define-fun $e38 () (_ BitVec 1) (bvand (bvnot $e32) (bvnot (bvand (bvnot $e29) (bvnot $e31)))))
(define-fun $e39 () (_ BitVec 1) (bvand (bvnot (bvand (bvnot $e30) (bvnot $e38))) (bvnot (bvand $e30 $e38))))
(define-fun $e40 () (_ BitVec 1) (bvand v4 v8))
(define-fun $e41 () (_ BitVec 1) (bvand v5 v7))
(define-fun $e42 () (_ BitVec 1) (bvand $e40 $e41))
(define-fun $e43 () (_ BitVec 1) (bvand v1 v11))
(define-fun $e44 () (_ BitVec 1) (bvand v2 v10))
(define-fun $e45 () (_ BitVec 1) (bvand $e43 $e44))
(define-fun $e46 () (_ BitVec 1) (bvand v3 v9))
(define-fun $e47 () (_ BitVec 1) (bvand (bvand (bvnot $e45) (bvnot (bvand $e43 $e46))) (bvnot (bvand $e44 $e46))))
(define-fun $e48 () (_ BitVec 1) (bvand (bvnot (bvand $e39 $e42)) (bvand (bvnot (bvand $e42 (bvnot $e47))) (bvnot (bvand $e39 (bvnot $e47))))))
(define-fun $e49 () (_ BitVec 1) (bvand v4 v7))
(define-fun $e50 () (_ BitVec 1) (bvand v4 v9))
(define-fun $e51 () (_ BitVec 1) (bvand v5 v8))
(define-fun $e52 () (_ BitVec 1) (bvand $e50 $e51))
(define-fun $e53 () (_ BitVec 1) (bvand v6 v7))
(define-fun $e54 () (_ BitVec 1) (bvand (bvand (bvnot $e52) (bvnot (bvand $e50 $e53))) (bvnot (bvand $e51 $e53))))
(define-fun $e55 () (_ BitVec 1) (bvand v1 v12))
(define-fun $e56 () (_ BitVec 1) (bvand v2 v11))
(define-fun $e57 () (_ BitVec 1) (bvand $e55 $e56))
(define-fun $e58 () (_ BitVec 1) (bvand v3 v10))
(define-fun $e59 () (_ BitVec 1) (bvand (bvand (bvnot $e57) (bvnot (bvand $e55 $e58))) (bvnot (bvand $e56 $e58))))
(define-fun $e60 () (_ BitVec 1) (bvand (bvnot $e54) (bvnot $e59)))
(define-fun $e61 () (_ BitVec 1) (bvand (bvnot $e45) (bvnot (bvand (bvnot $e43) (bvnot $e44)))))
(define-fun $e62 () (_ BitVec 1) (bvand (bvnot (bvand (bvnot $e46) (bvnot $e61))) (bvnot (bvand $e46 $e61))))
(define-fun $e63 () (_ BitVec 1) (bvand (bvand (bvnot $e60) (bvnot (bvand (bvnot $e59) $e62))) (bvnot (bvand (bvnot $e54) $e62))))
(define-fun $e64 () Bool (= $e42 $e47))
(define-fun $e65 () (_ BitVec 1) (bvand (bvnot (bvand (bvnot $e39) (bvnot (ite $e64 #b1 #b0)))) (bvnot (bvand $e39 (ite $e64 #b1 #b0)))))
(define-fun $e66 () Bool (= $e63 $e65))
(define-fun $e67 () (_ BitVec 1) (bvand (bvnot $e42) (bvnot (bvand (bvnot $e40) (bvnot $e41)))))
(define-fun $e68 () (_ BitVec 1) (bvand v2 v12))
(define-fun $e69 () (_ BitVec 1) (bvand v3 v11))
(define-fun $e70 () (_ BitVec 1) (bvand $e68 $e69))
(define-fun $e71 () (_ BitVec 1) (bvand v4 v10))
(define-fun $e72 () (_ BitVec 1) (bvand (bvand (bvnot $e70) (bvnot (bvand $e68 $e71))) (bvnot (bvand $e69 $e71))))
(define-fun $e73 () (_ BitVec 1) (bvand v5 v9))
(define-fun $e74 () (_ BitVec 1) (bvand v6 v8))
(define-fun $e75 () (_ BitVec 1) (bvand $e73 $e74))
(define-fun $e76 () (_ BitVec 1) (bvand (bvnot $e57) (bvnot (bvand (bvnot $e55) (bvnot $e56)))))
(define-fun $e77 () (_ BitVec 1) (bvand (bvnot (bvand (bvnot $e58) (bvnot $e76))) (bvnot (bvand $e58 $e76))))
(define-fun $e78 () (_ BitVec 1) (bvand (bvand (bvnot (bvand (bvnot $e72) $e75)) (bvnot (bvand (bvnot $e72) $e77))) (bvnot (bvand $e75 $e77))))
(define-fun $e79 () (_ BitVec 1) (bvand (bvnot $e60) (bvnot (bvand $e54 $e59))))
(define-fun $e80 () (_ BitVec 1) (bvand (bvnot (bvand (bvnot $e62) (bvnot $e79))) (bvnot (bvand $e62 $e79))))
(define-fun $e81 () Bool (= $e78 $e80))
(define-fun $e82 () (_ BitVec 1) (bvand (bvnot $e52) (bvnot (bvand (bvnot $e50) (bvnot $e51)))))
(define-fun $e83 () (_ BitVec 1) (bvand (bvnot (bvand (bvnot $e53) (bvnot $e82))) (bvnot (bvand $e53 $e82))))
(define-fun $e84 () (_ BitVec 1) (bvand v3 v12))
(define-fun $e85 () (_ BitVec 1) (bvand v4 v11))
(define-fun $e86 () (_ BitVec 1) (bvand $e84 $e85))
(define-fun $e87 () (_ BitVec 1) (bvand v5 v10))
(define-fun $e88 () (_ BitVec 1) (bvand (bvand (bvnot $e86) (bvnot (bvand $e84 $e87))) (bvnot (bvand $e85 $e87))))
(define-fun $e89 () (_ BitVec 1) (bvand (bvnot $e70) (bvnot (bvand (bvnot $e68) (bvnot $e69)))))
(define-fun $e90 () (_ BitVec 1) (bvand (bvnot (bvand (bvnot $e71) (bvnot $e89))) (bvnot (bvand $e71 $e89))))
(define-fun $e91 () (_ BitVec 1) (bvand (bvnot $e75) (bvnot (bvand (bvnot $e73) (bvnot $e74)))))
(define-fun $e92 () (_ BitVec 1) (bvand (bvand (bvnot (bvand (bvnot $e88) $e90)) (bvnot (bvand (bvnot $e88) $e91))) (bvnot (bvand $e90 $e91))))
(define-fun $e93 () Bool (= $e72 $e75))
(define-fun $e94 () (_ BitVec 1) (bvand (bvnot (bvand (bvnot $e77) (bvnot (ite $e93 #b1 #b0)))) (bvnot (bvand $e77 (ite $e93 #b1 #b0)))))
(define-fun $e95 () Bool (= $e92 $e94))
(define-fun $e96 () Bool (= $e88 $e90))
(define-fun $e97 () (_ BitVec 1) (bvand (bvnot (bvand (bvnot $e91) (bvnot (ite $e96 #b1 #b0)))) (bvnot (bvand $e91 (ite $e96 #b1 #b0)))))
(define-fun $e98 () (_ BitVec 1) (bvand (bvnot $e86) (bvnot (bvand (bvnot $e84) (bvnot $e85)))))
(define-fun $e99 () (_ BitVec 1) (bvand (bvnot (bvand (bvnot $e87) (bvnot $e98))) (bvnot (bvand $e87 $e98))))
(define-fun $e100 () (_ BitVec 1) (bvand v6 v9))
(define-fun $e101 () (_ BitVec 1) (bvand v4 v12))
(define-fun $e102 () (_ BitVec 1) (bvand v5 v11))
(define-fun $e103 () (_ BitVec 1) (bvand $e101 $e102))
(define-fun $e104 () (_ BitVec 1) (bvand v6 v10))
(define-fun $e105 () (_ BitVec 1) (bvand (bvand (bvnot $e103) (bvnot (bvand $e101 $e104))) (bvnot (bvand $e102 $e104))))
(define-fun $e106 () (_ BitVec 1) (bvand (bvnot (bvand $e99 $e100)) (bvand (bvnot (bvand $e99 (bvnot $e105))) (bvnot (bvand $e100 (bvnot $e105))))))
(define-fun $e107 () Bool (= $e99 $e105))
(define-fun $e108 () (_ BitVec 1) (bvand (bvnot (bvand (bvnot $e100) (bvnot (ite $e107 #b1 #b0)))) (bvnot (bvand $e100 (ite $e107 #b1 #b0)))))
(define-fun $e109 () (_ BitVec 1) (bvand (bvnot $e103) (bvnot (bvand (bvnot $e101) (bvnot $e102)))))
(define-fun $e110 () (_ BitVec 1) (bvand (bvnot (bvand (bvnot $e104) (bvnot $e109))) (bvnot (bvand $e104 $e109))))
(define-fun $e111 () (_ BitVec 1) (bvand v5 v12))
(define-fun $e112 () (_ BitVec 1) (bvand v6 v11))
(define-fun $e113 () (_ BitVec 1) (bvand $e111 $e112))
(define-fun $e114 () (_ BitVec 1) (bvand $e110 $e113))
(define-fun $e115 () (_ BitVec 1) (bvand $e108 $e114))
(define-fun $e116 () (_ BitVec 11) (concat (concat (concat (concat (concat (concat (concat (concat (concat (concat $e26 $e36) (bvand (ite $e37 #b1 #b0) (bvnot $e48))) (bvnot (bvand (bvnot (bvand $e49 $e65)) (bvand (bvnot (bvand (bvnot $e63) $e65)) (bvnot (bvand $e49 (bvnot $e63))))))) (bvnot (bvand (bvnot (bvand $e67 $e80)) (bvand (bvnot (bvand (bvnot $e78) $e80)) (bvnot (bvand $e67 (bvnot $e78))))))) (bvnot (bvand (bvnot (bvand $e83 $e94)) (bvand (bvnot (bvand (bvnot $e92) $e94)) (bvnot (bvand $e83 (bvnot $e92))))))) (bvand $e97 (bvnot $e106))) $e115) (bvand (bvnot $e115) (bvnot (bvand (bvnot $e108) (bvnot $e114))))) (bvand (bvnot $e114) (bvnot (bvand (bvnot $e110) (bvnot $e113))))) (bvand (bvnot $e113) (bvnot (bvand (bvnot $e111) (bvnot $e112))))))
(assert (not (= (bvadd (concat (concat (concat (concat (concat (concat (concat (concat $e17 (bvand (bvnot $e26) (bvnot (bvand (bvnot $e24) (bvnot $e25))))) (bvand (bvnot $e36) (bvnot (bvand (bvnot $e34) (bvnot (ite $e35 #b1 #b0)))))) (ite (= (ite $e37 #b1 #b0) $e48) #b1 #b0)) (bvand (bvnot (bvand (bvnot $e49) (bvnot (ite $e66 #b1 #b0)))) (bvnot (bvand $e49 (ite $e66 #b1 #b0))))) (bvand (bvnot (bvand (bvnot $e67) (bvnot (ite $e81 #b1 #b0)))) (bvnot (bvand $e67 (ite $e81 #b1 #b0))))) (bvand (bvnot (bvand (bvnot $e83) (bvnot (ite $e95 #b1 #b0)))) (bvnot (bvand $e83 (ite $e95 #b1 #b0))))) (ite (= $e97 $e106) #b1 #b0)) #b0000) (bvand (concat $e116 v6) (concat $e116 v12))) (bvmul (concat (concat (concat (concat (concat (concat #b000000 v7) v8) v9) v10) v11) v12) (concat (concat (concat (concat (concat (concat #b000000 v1) v2) v3) v4) v5) v6)))))


; Adding new assert
(assert(let ((a!1 (bvnot (bvor (bvnot v1) (bvnot v8) (bvnot v2) (bvnot v7))))
      (a!2 (bvor (bvnot (bvor (bvnot v1) (bvnot v8)))
                 (bvnot (bvor (bvnot v2) (bvnot v7)))))
      (a!3 (bvnot (bvor (bvnot v2) (bvnot v8) (bvnot v1) (bvnot v9))))
      (a!8 (bvor (bvnot (bvor (bvnot v2) (bvnot v8)))
                 (bvnot (bvor (bvnot v1) (bvnot v9)))))
      (a!10 (bvnot (bvor (bvnot v2) (bvnot v9) (bvnot v1) (bvnot v10))))
      (a!17 (bvor (bvnot (bvor (bvnot v2) (bvnot v9)))
                  (bvnot (bvor (bvnot v1) (bvnot v10)))))
      (a!20 (bvnot (bvor (bvnot v1) (bvnot v11) (bvnot v2) (bvnot v10))))
      (a!25 (bvnot (bvor (bvnot v4) (bvnot v9) (bvnot v5) (bvnot v8))))
      (a!26 (bvnot (bvor (bvnot v4) (bvnot v9) (bvnot v6) (bvnot v7))))
      (a!27 (bvnot (bvor (bvnot v5) (bvnot v8) (bvnot v6) (bvnot v7))))
      (a!28 (bvnot (bvor (bvnot v1) (bvnot v12) (bvnot v2) (bvnot v11))))
      (a!29 (bvnot (bvor (bvnot v1) (bvnot v12) (bvnot v3) (bvnot v10))))
      (a!30 (bvnot (bvor (bvnot v2) (bvnot v11) (bvnot v3) (bvnot v10))))
      (a!32 (bvor (bvnot (bvor (bvnot v1) (bvnot v11)))
                  (bvnot (bvor (bvnot v2) (bvnot v10)))))
      (a!37 (bvnot (bvor (bvnot v4) (bvnot v8) (bvnot v5) (bvnot v7))))
      (a!44 (bvor (bvnot (bvor (bvnot v4) (bvnot v8)))
                  (bvnot (bvor (bvnot v5) (bvnot v7)))))
      (a!45 (bvnot (bvor (bvnot v2) (bvnot v12) (bvnot v3) (bvnot v11))))
      (a!47 (bvor (bvnot (bvor (bvnot v1) (bvnot v12)))
                  (bvnot (bvor (bvnot v2) (bvnot v11)))))
      (a!59 (bvor (bvnot (bvor (bvnot v4) (bvnot v9)))
                  (bvnot (bvor (bvnot v5) (bvnot v8)))))
      (a!62 (bvnot (bvor (bvnot v3) (bvnot v12) (bvnot v4) (bvnot v11))))
      (a!64 (bvor (bvnot (bvor (bvnot v2) (bvnot v12)))
                  (bvnot (bvor (bvnot v3) (bvnot v11)))))
      (a!67 (bvnot (bvor (bvnot v5) (bvnot v9) (bvnot v6) (bvnot v8))))
      (a!68 (bvor (bvnot (bvor (bvnot v5) (bvnot v9)))
                  (bvnot (bvor (bvnot v6) (bvnot v8)))))
      (a!82 (bvor (bvnot (bvor (bvnot v3) (bvnot v12)))
                  (bvnot (bvor (bvnot v4) (bvnot v11)))))
      (a!85 (bvnot (bvor (bvnot v4) (bvnot v12) (bvnot v5) (bvnot v11))))
      (a!104 (bvor (bvnot (bvor (bvnot v4) (bvnot v12)))
                   (bvnot (bvor (bvnot v5) (bvnot v11)))))
      (a!111 (bvnot (bvor (bvnot v5) (bvnot v12) (bvnot v6) (bvnot v11))))
      (a!113 (bvor (bvnot (bvor (bvnot v5) (bvnot v12)))
                   (bvnot (bvor (bvnot v6) (bvnot v11))))))
(let ((a!4 (bvor (bvnot (bvor (bvnot v2) (bvnot v8) (bvnot v3) (bvnot v7)))
                 a!3
                 (bvnot (bvor (bvnot v3) (bvnot v7) (bvnot v1) (bvnot v9)))))
      (a!5 (bvor a!1 (bvnot (bvor (bvnot v1) (bvnot v7)))))
      (a!9 (bvor (bvnot (bvor (bvnot v3) (bvnot v7)))
                 (bvnot (bvor a!3 (bvnot a!8)))))
      (a!11 (bvor (bvnot (bvor (bvnot v2) (bvnot v9) (bvnot v3) (bvnot v8)))
                  a!10
                  (bvnot (bvor (bvnot v3) (bvnot v8) (bvnot v1) (bvnot v10)))))
      (a!18 (bvor (bvnot (bvor (bvnot v3) (bvnot v8)))
                  (bvnot (bvor a!10 (bvnot a!17)))))
      (a!21 (bvor a!20
                  (bvnot (bvor (bvnot v1) (bvnot v11) (bvnot v3) (bvnot v9)))
                  (bvnot (bvor (bvnot v2) (bvnot v10) (bvnot v3) (bvnot v9)))))
      (a!31 (bvnot (bvor (bvnot (bvor a!25 a!26 a!27))
                         (bvnot (bvor a!28 a!29 a!30)))))
      (a!33 (bvor (bvnot (bvor (bvnot v3) (bvnot v9)))
                  (bvnot (bvor a!20 (bvnot a!32)))))
      (a!46 (bvor a!45
                  (bvnot (bvor (bvnot v2) (bvnot v12) (bvnot v4) (bvnot v10)))
                  (bvnot (bvor (bvnot v3) (bvnot v11) (bvnot v4) (bvnot v10)))))
      (a!48 (bvor (bvnot (bvor (bvnot v3) (bvnot v10)))
                  (bvnot (bvor a!28 (bvnot a!47)))))
      (a!60 (bvor (bvnot (bvor (bvnot v6) (bvnot v7)))
                  (bvnot (bvor a!25 (bvnot a!59)))))
      (a!63 (bvor a!62
                  (bvnot (bvor (bvnot v3) (bvnot v12) (bvnot v5) (bvnot v10)))
                  (bvnot (bvor (bvnot v4) (bvnot v11) (bvnot v5) (bvnot v10)))))
      (a!65 (bvor (bvnot (bvor (bvnot v4) (bvnot v10)))
                  (bvnot (bvor a!45 (bvnot a!64)))))
      (a!83 (bvor (bvnot (bvor (bvnot v5) (bvnot v10)))
                  (bvnot (bvor a!62 (bvnot a!82)))))
      (a!86 (bvor a!85
                  (bvnot (bvor (bvnot v4) (bvnot v12) (bvnot v6) (bvnot v10)))
                  (bvnot (bvor (bvnot v5) (bvnot v11) (bvnot v6) (bvnot v10)))))
      (a!105 (bvor (bvnot (bvor (bvnot v6) (bvnot v10)))
                   (bvnot (bvor a!85 (bvnot a!104))))))
(let ((a!6 (bvor (bvnot (bvor a!1 (bvnot a!2) (bvnot a!4)))
                 (bvnot (bvor a!1 (bvnot a!5)))))
      (a!12 (= (bvnot (bvor a!1 (bvnot a!2))) (bvnot a!4)))
      (a!14 (bvor (bvnot a!9)
                  (bvnot (bvor (bvnot v3) (bvnot v7) a!3 (bvnot a!8)))
                  (bvnot a!11)))
      (a!16 (bvor (bvnot a!9)
                  (bvnot (bvor (bvnot v3) (bvnot v7) a!3 (bvnot a!8)))))
      (a!19 (bvor (bvnot a!18)
                  (bvnot (bvor (bvnot v3) (bvnot v8) a!10 (bvnot a!17)))
                  (bvnot v4)
                  (bvnot v8)
                  (bvnot v5)
                  (bvnot v7)))
      (a!22 (bvor (bvnot a!18)
                  (bvnot (bvor (bvnot v3) (bvnot v8) a!10 (bvnot a!17)))
                  (bvnot a!21)))
      (a!34 (bvor (bvnot (bvor a!28 a!29 a!30))
                  (bvnot a!33)
                  (bvnot (bvor (bvnot v3) (bvnot v9) a!20 (bvnot a!32)))))
      (a!35 (bvor (bvnot (bvor a!25 a!26 a!27))
                  (bvnot a!33)
                  (bvnot (bvor (bvnot v3) (bvnot v9) a!20 (bvnot a!32)))))
      (a!36 (bvor (bvnot a!18)
                  (bvnot (bvor (bvnot v3) (bvnot v8) a!10 (bvnot a!17)))))
      (a!39 (bvnot (ite (= a!37 (bvnot a!21)) #b1 #b0)))
      (a!49 (bvor (bvnot a!46)
                  (bvnot a!48)
                  (bvnot (bvor (bvnot v3) (bvnot v10) a!28 (bvnot a!47)))))
      (a!50 (bvor (bvnot v5)
                  (bvnot v9)
                  (bvnot v6)
                  (bvnot v8)
                  (bvnot a!48)
                  (bvnot (bvor (bvnot v3) (bvnot v10) a!28 (bvnot a!47)))))
      (a!52 (bvor (bvnot a!33)
                  (bvnot (bvor (bvnot v3) (bvnot v9) a!20 (bvnot a!32)))))
      (a!53 (bvnot (bvor a!31 (bvnot (bvor a!25 a!26 a!27 a!28 a!29 a!30)))))
      (a!54 (bvor (bvnot a!33)
                  (bvnot (bvor (bvnot v3) (bvnot v9) a!20 (bvnot a!32)))
                  a!31
                  (bvnot (bvor a!25 a!26 a!27 a!28 a!29 a!30))))
      (a!61 (bvor (bvnot a!60)
                  (bvnot (bvor (bvnot v6) (bvnot v7) a!25 (bvnot a!59)))))
      (a!66 (bvor (bvnot a!63)
                  (bvnot a!65)
                  (bvnot (bvor (bvnot v4) (bvnot v10) a!45 (bvnot a!64)))))
      (a!69 (bvor (bvnot a!65)
                  (bvnot (bvor (bvnot v4) (bvnot v10) a!45 (bvnot a!64)))
                  a!67
                  (bvnot a!68)))
      (a!71 (bvor (bvnot a!48)
                  (bvnot (bvor (bvnot v3) (bvnot v10) a!28 (bvnot a!47)))))
      (a!73 (bvnot (ite (= (bvnot a!46) a!67) #b1 #b0)))
      (a!78 (bvor (bvnot a!65)
                  (bvnot (bvor (bvnot v4) (bvnot v10) a!45 (bvnot a!64)))))
      (a!84 (bvor (bvnot a!83)
                  (bvnot (bvor (bvnot v5) (bvnot v10) a!62 (bvnot a!82)))
                  (bvnot v6)
                  (bvnot v9)))
      (a!87 (bvor (bvnot a!83)
                  (bvnot (bvor (bvnot v5) (bvnot v10) a!62 (bvnot a!82)))
                  (bvnot a!86)))
      (a!101 (bvor (bvnot a!83)
                   (bvnot (bvor (bvnot v5) (bvnot v10) a!62 (bvnot a!82)))))
      (a!108 (bvor (bvnot a!105)
                   (bvnot (bvor (bvnot v6) (bvnot v10) a!85 (bvnot a!104)))
                   (bvnot v5)
                   (bvnot v12)
                   (bvnot v6)
                   (bvnot v11)))
      (a!110 (bvor (bvnot a!105)
                   (bvnot (bvor (bvnot v6) (bvnot v10) a!85 (bvnot a!104))))))
(let ((a!7 (bvor (bvnot (bvor a!1 (bvnot a!2) (bvnot a!4) (bvnot a!5)))
                 (bvnot a!6)))
      (a!13 (bvor (bvnot a!9)
                  (bvnot (bvor (bvnot v3) (bvnot v7) a!3 (bvnot a!8)))
                  (bvnot a!11)
                  (bvnot (ite a!12 #b1 #b0))))
      (a!23 (bvor (bvnot a!19)
                  (bvnot (bvor (bvnot v4)
                               (bvnot v8)
                               (bvnot v5)
                               (bvnot v7)
                               (bvnot a!21)))
                  (bvnot a!22)))
      (a!38 (bvor (bvnot a!36) (ite (= a!37 (bvnot a!21)) #b1 #b0)))
      (a!40 (bvor (bvnot a!18)
                  (bvnot (bvor (bvnot v3) (bvnot v8) a!10 (bvnot a!17)))
                  a!39))
      (a!51 (bvor (bvnot (bvor (bvnot a!46)
                               (bvnot v5)
                               (bvnot v9)
                               (bvnot v6)
                               (bvnot v8)))
                  (bvnot a!49)
                  (bvnot a!50)))
      (a!55 (bvor (bvnot (bvor (bvnot a!52) a!53)) (bvnot a!54)))
      (a!70 (bvor (bvnot a!66)
                  (bvnot (bvor (bvnot a!63) a!67 (bvnot a!68)))
                  (bvnot a!69)))
      (a!72 (bvor (bvnot a!71) (ite (= (bvnot a!46) a!67) #b1 #b0)))
      (a!74 (bvor (bvnot a!48)
                  (bvnot (bvor (bvnot v3) (bvnot v10) a!28 (bvnot a!47)))
                  a!73))
      (a!79 (bvor (bvnot (bvor a!67 (bvnot a!68)))
                  (ite (= (bvnot a!63) (bvnot a!78)) #b1 #b0)))
      (a!80 (bvnot (ite (= (bvnot a!63) (bvnot a!78)) #b1 #b0)))
      (a!88 (bvor (bvnot a!84)
                  (bvnot a!87)
                  (bvnot (bvor (bvnot v6) (bvnot v9) (bvnot a!86)))))
      (a!90 (bvnot (ite (= (bvnot a!16) (bvnot a!11)) #b1 #b0)))
      (a!92 (bvor (bvnot v4)
                  (bvnot v7)
                  (bvnot (bvor a!31 (bvnot a!34) (bvnot a!35)))))
      (a!94 (bvor a!37
                  (bvnot a!44)
                  (bvnot (bvor (bvnot a!52) a!53))
                  (bvnot a!54)))
      (a!102 (bvor (bvnot (bvor (bvnot v6) (bvnot v9)))
                   (ite (= (bvnot a!101) (bvnot a!86)) #b1 #b0)))
      (a!103 (bvnot (ite (= (bvnot a!101) (bvnot a!86)) #b1 #b0)))
      (a!112 (bvor (bvnot a!108) (bvnot (bvor (bvnot a!110) a!111)))))
(let ((a!15 (bvor (bvnot a!13) (bvnot (bvor (bvnot a!14) (ite a!12 #b1 #b0)))))
      (a!24 (= (ite (= (bvnot a!16) (bvnot a!11)) #b1 #b0) (bvnot a!23)))
      (a!41 (= (bvnot (bvor a!31 (bvnot a!34) (bvnot a!35)))
               (bvnot (bvor (bvnot a!38) (bvnot a!40)))))
      (a!56 (bvor (bvnot (bvor a!37 (bvnot a!44)))
                  (ite (= (bvnot a!51) (bvnot a!55)) #b1 #b0)))
      (a!57 (bvnot (ite (= (bvnot a!51) (bvnot a!55)) #b1 #b0)))
      (a!75 (= (bvnot a!70) (bvnot (bvor (bvnot a!72) (bvnot a!74)))))
      (a!81 (bvor (bvnot a!79) (bvnot (bvor a!67 (bvnot a!68) a!80))))
      (a!91 (bvor (bvnot (bvor a!31 (bvnot a!34) (bvnot a!35)))
                  (bvnot a!38)
                  (bvnot a!40)))
      (a!95 (bvor (bvnot a!51) (bvnot (bvor (bvnot a!52) a!53)) (bvnot a!54)))
      (a!97 (bvor (bvnot a!60)
                  (bvnot (bvor (bvnot v6) (bvnot v7) a!25 (bvnot a!59)))
                  (bvnot a!72)
                  (bvnot a!74)))
      (a!98 (bvor (bvnot a!60)
                  (bvnot (bvor (bvnot v6) (bvnot v7) a!25 (bvnot a!59)))
                  (bvnot a!70)))
      (a!100 (bvor (bvnot a!79)
                   (bvnot (bvor a!67 (bvnot a!68) a!80))
                   (bvnot a!88)))
      (a!106 (bvor (bvnot a!102)
                   (bvnot (bvor (bvnot v6) (bvnot v9) a!103))
                   (bvnot a!105)
                   (bvnot (bvor (bvnot v6) (bvnot v10) a!85 (bvnot a!104)))
                   (bvnot v5)
                   (bvnot v12)
                   (bvnot v6)
                   (bvnot v11)))
      (a!107 (bvor (bvnot a!102) (bvnot (bvor (bvnot v6) (bvnot v9) a!103)))))
(let ((a!42 (bvor (bvnot (bvor (bvnot v4) (bvnot v7))) (ite a!41 #b1 #b0)))
      (a!43 (bvnot (bvor (bvnot v4) (bvnot v7) (bvnot (ite a!41 #b1 #b0)))))
      (a!58 (bvor (bvnot a!56) (bvnot (bvor a!37 (bvnot a!44) a!57))))
      (a!76 (bvor (bvnot a!60)
                  (bvnot (bvor (bvnot v6) (bvnot v7) a!25 (bvnot a!59)))
                  (bvnot (ite a!75 #b1 #b0))))
      (a!93 (bvor (bvnot (bvor (bvnot v4) (bvnot v7) (bvnot a!38) (bvnot a!40)))
                  (bvnot a!91)
                  (bvnot a!92)))
      (a!96 (bvor (bvnot a!94)
                  (bvnot a!95)
                  (bvnot (bvor a!37 (bvnot a!44) (bvnot a!51)))))
      (a!99 (bvor (bvnot a!97)
                  (bvnot (bvor (bvnot a!70) (bvnot a!72) (bvnot a!74)))
                  (bvnot a!98)))
      (a!109 (bvor (bvnot a!106) (bvnot (bvor (bvnot a!107) (bvnot a!108))))))
(let ((a!77 (bvor (bvnot (bvor (bvnot a!61) (ite a!75 #b1 #b0))) (bvnot a!76)))
      (a!114 (bvor (concat (bvor a!1 (bvnot a!2) (bvnot a!4) (bvnot a!5))
                           a!13
                           (bvor a!90 (bvnot a!23))
                           (bvnot a!93)
                           (bvnot a!96)
                           (bvnot a!99)
                           a!100
                           a!106
                           a!109
                           a!112
                           (bvor a!111 (bvnot a!113))
                           (bvnot v6))
                   (concat (bvor a!1 (bvnot a!2) (bvnot a!4) (bvnot a!5))
                           a!13
                           (bvor a!90 (bvnot a!23))
                           (bvnot a!93)
                           (bvnot a!96)
                           (bvnot a!99)
                           a!100
                           a!106
                           a!109
                           a!112
                           (bvor a!111 (bvnot a!113))
                           (bvnot v12)))))
(let ((a!89 (concat a!1
                    (bvnot a!7)
                    (bvnot a!15)
                    (ite a!24 #b1 #b0)
                    (bvnot (bvor (bvnot a!42) a!43))
                    (bvnot a!58)
                    (bvnot a!77)
                    (ite (= (bvnot a!81) (bvnot a!88)) #b1 #b0)
                    #x0)))
  (= (bvadd a!89 (bvnot a!114))
     (bvmul (concat #b000000 v1 v2 v3 v4 v5 v6)
            (concat #b000000 v7 v8 v9 v10 v11 v12))))))))))))

(check-sat)